32	4
19	10	12	20
0	0	0	0	0	3	2	4	9
3	7	9	0	17	3	3	5	7
9	0	0	9	14	1	8
10	19	10	12	20	3	10	11	12
7	19	10	12	20	2	6	8
10	19	10	3	0	3	10	11	12
10	0	9	0	6	4	13	14	15	22
7	0	0	9	20	2	11	12
5	12	1	12	3	4	13	14	15	22
9	19	10	3	0	4	13	14	15	22
10	0	0	9	20	4	13	14	15	22
4	7	0	0	11	3	13	14	15
9	19	0	11	0	4	16	17	19	21
7	0	10	1	20	4	16	19	20	21
3	0	10	1	20	4	19	24	27	30
2	19	10	0	20	3	18	23	24
6	19	0	0	0	3	20	25	30
3	19	10	0	0	3	26	27	29
3	0	0	8	0	3	26	29	31
9	19	0	0	0	5	24	26	27	28	29
8	0	0	12	0	5	24	25	26	29	30
2	19	0	11	0	1	31
1	0	0	8	20	4	26	29	30	31
2	5	0	4	0	1	32
10	0	0	12	0	1	31
10	19	0	11	0	1	32
3	14	10	0	0	1	31
4	19	10	0	0	1	32
8	0	10	1	20	1	32
9	0	0	8	20	1	32
2	19	10	12	20	1	32
0	0	0	0	0	0
